200
[41,42,43,45,46,47,48,49,50,51,52,53,54,55,56,57,58,59,60,61,62,63,64,65,66,67,70,71,73,79,81,83,85,86,87,88,89,90,92,93,95,96,102,105,108,110,111,113,114,117,118,120,121,122,124,125,126,127,128,129,130,131,133,134,138,139]
[1,2,1,3,1,1,1,1,2,1,1,1,2,1,1,1,2,1,1,1,1,1,2,4,1,2,1,1,1,1,3,2,2,1,2,2,1,1,1,1,2,1,3,1,3,1,1,1,2,3,3,1,1,1,3,3,2,1,1,1,1,1,2,1,1,2]
